n = 14;
lu = [|-192, 183
      |-134, 93
      |-190, 191
      |71, 149
      |140, 196
      |-102, -64
      |-86, 82
      |-107, -93
      |141, 147
      |-109, 117
      |4, 167
      |-106, -17
      |-165, -31
      |-55, 25|];
